10
1 0 157
2 1 139
4 0 126
4 1 277
4 3 222
5 0 124
5 1 169
5 3 291
5 4 191
6 0 18
6 1 112
6 5 62
7 0 239
7 2 153
7 3 75
7 4 176
7 5 272
8 0 51
8 1 25
8 2 78
8 3 311
8 5 12
8 6 98
8 7 44
9 0 86
9 1 58
9 2 289
9 4 68
9 6 237
9 7 233
